c Random generated cnf formula, satisfiable: true
p cnf 10 50
7 8 -6 0
10 2 -9 0
8 6 -10 0
6 4 1 0
-5 2 -1 0
-4 -5 1 0
9 2 7 0
1 9 8 0
-9 4 6 0
-1 -8 -2 0
-1 -3 -9 0
1 -6 7 0
6 -5 9 0
-10 4 1 0
3 -9 4 0
1 6 -9 0
-8 -10 3 0
6 3 4 0
-5 -8 -7 0
5 3 -10 0
10 -6 5 0
7 -1 -9 0
2 5 3 0
-7 -9 -8 0
3 -7 -8 0
-7 -5 -9 0
8 -1 5 0
8 -5 2 0
5 -3 9 0
8 4 9 0
6 -10 8 0
-5 -4 3 0
-6 -4 7 0
-2 -3 7 0
-10 3 4 0
-2 -4 -1 0
-4 -7 2 0
8 6 3 0
-6 3 10 0
-7 10 -2 0
6 -10 -3 0
-10 -9 -5 0
3 4 1 0
-7 5 4 0
-7 -6 2 0
-8 5 -6 0
6 1 9 0
-7 4 1 0
6 7 2 0
-8 3 4 0
